data/solutions/recovery/degenerate/intermediate/binding/degenerate_intermediate_instance23/31.sol
Elapsed time: 0.06
Upper bound: 231534721.0
Planning weighted value: 8.89128425196e+11
C[0]=231534721.0
C[1]=230511646.0
C[2]=230118692.0
C[3]=229050618.0
C[4]=228637639.0
C[5]=228066082.0
C[6]=227781490.0
C[7]=227134155.0
C[8]=221411825.0
C[9]=215465396.0
C[10]=212693636.0
C[11]=0.0
y[0]=4
y[1]=5
y[2]=9
y[3]=0
y[4]=0
y[5]=0
y[6]=3
y[7]=5
y[8]=4
y[9]=1
y[10]=1
y[11]=6
y[12]=2
y[13]=2
y[14]=7
y[15]=8
y[16]=5
y[17]=0
y[18]=8
y[19]=9
y[20]=1
y[21]=4
y[22]=4
y[23]=8
y[24]=1
y[25]=1
y[26]=9
y[27]=10
y[28]=8
y[29]=2
y[30]=7
y[31]=10
y[32]=2
y[33]=0
y[34]=8
y[35]=7
y[36]=5
y[37]=3
y[38]=6
y[39]=4
y[40]=5
y[41]=3
y[42]=2
y[43]=3
y[44]=0
y[45]=9
y[46]=3
y[47]=4
y[48]=4
y[49]=5
y[50]=10
y[51]=9
y[52]=1
y[53]=8
y[54]=10
y[55]=5
y[56]=7
y[57]=0
y[58]=7
y[59]=4
y[60]=6
y[61]=5
y[62]=10
y[63]=10
y[64]=6
y[65]=7
y[66]=2
y[67]=0
y[68]=6
y[69]=4
y[70]=2
y[71]=5
y[72]=3
y[73]=9
y[74]=9
y[75]=1
y[76]=3
y[77]=2
