data/solutions/recovery/degenerate/intermediate/binding/degenerate_intermediate_instance23/31.log

Log started (V12.6.3.0) Sun Apr 22 12:29:30 2018

New value for default parallel thread count: 1

Problem '/tmp/tmpWEvHdl.pyomo.lp' read.
Read time = 0.01 sec. (0.84 ticks)

Problem name         : /tmp/tmpWEvHdl.pyomo.lp
Objective sense      : Minimize
Variables            :     950  [Nneg: 1,  Binary: 936,  General Integer: 13]
Objective nonzeros   :       1
Linear constraints   :     182  [Less: 90,  Equal: 92]
  Nonzeros           :   60259
  RHS nonzeros       :      79

Variables            : Min LB: 0.000000         Max UB: 1.000000       
Objective nonzeros   : Min   : 1.000000         Max   : 1.000000       
Linear constraints   :
  Nonzeros           : Min   : 1.000000         Max   : 6.145599e+07   
  RHS nonzeros       : Min   : 1.000000         Max   : 1.000000       
Tried aggregator 1 time.
MIP Presolve eliminated 151 rows and 839 columns.
Reduced MIP has 31 rows, 111 columns, and 231 nonzeros.
Reduced MIP has 99 binaries, 12 generals, 0 SOSs, and 0 indicators.
Presolve time = 0.00 sec. (3.62 ticks)
Found incumbent of value 5.1320652e+08 after 0.01 sec. (5.11 ticks)
Probing time = 0.00 sec. (0.32 ticks)
Tried aggregator 1 time.
Reduced MIP has 31 rows, 111 columns, and 231 nonzeros.
Reduced MIP has 99 binaries, 12 generals, 0 SOSs, and 0 indicators.
Presolve time = 0.00 sec. (0.18 ticks)
Probing time = 0.00 sec. (0.32 ticks)
Clique table members: 9.
MIP emphasis: balance optimality and feasibility.
MIP search method: dynamic search.
Parallel mode: none, using 1 thread.
Root relaxation solution time = 0.00 sec. (0.25 ticks)

        Nodes                                         Cuts/
   Node  Left     Objective  IInf  Best Integer    Best Bound    ItCnt     Gap

*     0+    0                       5.13207e+08   2.27781e+08            55.62%
      0     0   2.27781e+08    14   5.13207e+08   2.27781e+08       52   55.62%
      0     0   2.27974e+08    27   5.13207e+08      Fract: 5       82   55.58%
      0     0   2.28509e+08    27   5.13207e+08      Fract: 3      115   55.47%
*     0+    0                       2.63554e+08   2.28509e+08            13.30%
      0     2   2.28509e+08    27   2.63554e+08   2.28519e+08      117   13.29%
Elapsed time = 0.02 sec. (9.47 ticks, tree = 0.01 MB, solutions = 2)
*    30+   29                       2.54132e+08   2.28950e+08             9.91%
*    31    22      integral     0   2.36198e+08   2.28950e+08      301    3.07%
*    69    31      integral     0   2.33410e+08   2.28950e+08      392    1.91%
*    70    29      integral     0   2.32506e+08   2.28950e+08      395    1.53%
*   137    21      integral     0   2.31535e+08   2.29774e+08      528    0.76%

Gomory fractional cuts applied:  4

Root node processing (before b&c):
  Real time             =    0.02 sec. (9.52 ticks)
Sequential b&c:
  Real time             =    0.02 sec. (7.04 ticks)
                          ------------
Total (root+branch&cut) =    0.03 sec. (16.56 ticks)

Solution pool: 7 solutions saved.

MIP - Integer optimal solution:  Objective =  2.3153472100e+08
Solution time =    0.03 sec.  Iterations = 657  Nodes = 235
Deterministic time = 16.56 ticks  (527.68 ticks/sec)


Incumbent solution written to file '/tmp/tmpbZ7ZNA.cplex.sol'.
